HUN,8,6,831
2,22,1,28,3,22,4,8,5,10,0,24
1,25,0,17,4,16,3,27,5,8,2,9
3,13,2,11,0,30,4,1,5,30,1,7
3,11,0,20,4,5,5,27,1,22,2,6
1,2,5,14,4,16,3,7,0,15,2,2
1,28,4,27,3,25,0,8,2,10,5,1
2,4,3,1,5,18,0,25,1,16,4,13
1,12,2,3,5,28,4,8,0,24,3,25
